p cnf 18 120
-1 -19 0
-1 -20 0
-1 -21 0
-2 -19 0
-2 -20 0
-2 -21 0
-3 -19 0
-3 -20 0
-3 -21 0
-7 -13 0
-7 -14 0
-7 -15 0
-8 -13 0
-8 -14 0
-8 -15 0
-9 -13 0
-9 -14 0
-9 -15 0
-7 -25 0
-7 -26 0
-7 -27 0
-8 -25 0
-8 -26 0
-8 -27 0
-9 -25 0
-9 -26 0
-9 -27 0
-13 -31 0
-13 -32 0
-13 -33 0
-14 -31 0
-14 -32 0
-14 -33 0
-15 -31 0
-15 -32 0
-15 -33 0
-19 -31 0
-19 -32 0
-19 -33 0
-20 -31 0
-20 -32 0
-20 -33 0
-21 -31 0
-21 -32 0
-21 -33 0
-25 -31 0
-25 -32 0
-25 -33 0
-26 -31 0
-26 -32 0
-26 -33 0
-27 -31 0
-27 -32 0
-27 -33 0
-1 -7 0
-1 -13 0
-1 -19 0
-1 -25 0
-1 -31 0
-7 -13 0
-7 -19 0
-7 -25 0
-7 -31 0
-13 -19 0
-13 -25 0
-13 -31 0
-19 -25 0
-19 -31 0
-25 -31 0
1 7 13 19 25 31 0
-2 -8 0
-2 -14 0
-2 -20 0
-2 -26 0
-2 -32 0
-8 -14 0
-8 -20 0
-8 -26 0
-8 -32 0
-14 -20 0
-14 -26 0
-14 -32 0
-20 -26 0
-20 -32 0
-26 -32 0
2 8 14 20 26 32 0
-3 -9 0
-3 -15 0
-3 -21 0
-3 -27 0
-3 -33 0
-9 -15 0
-9 -21 0
-9 -27 0
-9 -33 0
-15 -21 0
-15 -27 0
-15 -33 0
-21 -27 0
-21 -33 0
-27 -33 0
3 9 15 21 27 33 0
-1 -2 0
-1 -3 0
-2 -3 0
-7 -8 0
-7 -9 0
-8 -9 0
-13 -14 0
-13 -15 0
-14 -15 0
-19 -20 0
-19 -21 0
-20 -21 0
-25 -26 0
-25 -27 0
-26 -27 0
-31 -32 0
-31 -33 0
-32 -33 0
